50833.8,31568,25838.7,21789.6,21358.1,21358.1,20857.2,20481.2,18505.1,17926.1,17839.6,17026.6,17026.6,17026.6,17026.6,17026.6,17026.6,17026.6,17026.6,17026.6,17026.6,17026.6,17026.6,17026.6,17026.6,17026.6,17026.6,17026.6,17026.6,17026.6,17026.6,17026.6,17026.6,17026.6,17026.6,17026.6,17026.6,17026.6,17026.6,17026.6,17026.6,17026.6,17026.6,17026.6,17026.6,17026.6,17026.6,17026.6,17026.6,17026.6,17026.6,17026.6,17026.6,17026.6,17026.6,17026.6,17026.6,17026.6,17026.6,17026.6,17026.6,17026.6,17026.6,17026.6,17026.6,17026.6,17026.6,17026.6,17026.6,17026.6,17026.6,17026.6,17026.6,17026.6,17026.6,17026.6,17026.6,17026.6,17026.6,17026.6,17026.6,17026.6,17026.6,17026.6,17026.6,17026.6,17026.6,17026.6,17026.6,17026.6,17026.6,17026.6,17026.6,17026.6,17026.6,17026.6,17026.6,17026.6,17026.6,17026.6,17026.6,17026.6,17026.6,17026.6,17026.6,17026.6,17026.6,17026.6,17026.6,17026.6,17026.6,17026.6,17026.6,17026.6,17026.6,17026.6,17026.6,17026.6,17026.6,17026.6,17026.6,17026.6,17026.6,17026.6,17026.6,17026.6,17026.6,17026.6,17026.6,17026.6,17026.6,17026.6,17026.6,17026.6,17026.6,17026.6,17026.6,17026.6,17026.6,17026.6,17026.6,17026.6,17026.6,17026.6,17026.6,17026.6,17026.6,17026.6,17026.6,17026.6,17026.6,17026.6,15294.6,13921.6,12359.4,11377,10613.2,9938.84,9354.36,8854.94,8365.48,8043.99,7757.22,7612.96,7459.08,7226.3,7121.23,6956.32,6792.15,6676.54,6565.17,6504.41,6401.57,6342.49,6299.13,6210.78,6092.14,6024.29,5950.43,5888.45,5831.63,5808.99,5776.13,5734.82,5626.18,5567.82,5513.38,5500.55,5450.43,5368.57,5303.31,5231.5,5153.63,5130.65,5073.81,5071.02,5049.16,4977.43,4966.82,4953.32,4904.31,4833.42,4823.5,4786.33,4738.19,4700.95,4676.02,4667.72,4663.46,4660.14,4636.57,4631.81,4621.99,4596.55,4578.86,4547.47,4528.18,4496.48,4485.62,4468.33,4436.45,4396.81,4384.26,4380.78,4325.41,4309.3,4308.97,4291.49,4285.96,4264.13,4236.86,4220.53,4202.45,4198.41,4181.74,4174.79,4172.38,4169.32,4168.33,4167.04,4151.64,4151.56,4151.56,4151.56,4136.4,4135.48,4131.05,4125.89,4111.08,4094.91,4088.28,4088.28,4079.38,4076.3,4069.22,4056.81,4041.49,4038.7,4023.54,4020.35,4014.26,4014.26,4012.12,4011.7,4009.52,4003.9,3975.52,3975.52,3975.15,3969.06,3956.77,3955.96,3955.96,3944.93,3944.93,3929.33,3929.15,3929.15,3929.15,3929.15,3926.27,3926.27,3926.27,3926.27,3926.27,3926.27,3922.46,3910.9,3901.21,3900.28,3884.77,3884.56,3883.51,3883.51,3878.76,3878.48,3875.04,3875.04,3873.08,3869.7,3856.31,3856.31,3856.31,3856.31,3856.31,3856.31,3856.31,3856.31,3853.37,3853.37,3853.37,3847.81,3830.42,3830.42,3822.81,3822.81,3822.81,3822.61,3822.61,3822.61,3820.13,3820.13,3820.13,3820.13,3817.75,3817.75,3817.75,3816.92,3812.27,3809.31,3805.26,3805.24,3805.24,3805.24,3805.24,3805.24,3805.24,3805.24,3805.24,3805.24,3802.07,3802.07,3802.07,3802.07,3802.07,3802.07,3802.07,3802.07,3802.07,3802.07,3802.07,3802.07,3802.07,3782.84,3782.84,3777.78,3777.78,3769.87,3767.2,3767.2,3767.2,3767.2,3767.2,3767.2,3767.2,3767.2,3767.2,3767.2,3767.2,3767.2,3767.2,3767.2,3767.2,3767.2,3767.2,3767.2,3767.2,3767.2,3767.2,3767.2,3767.2,3767.2,3767.2,3767.2,3767.2,3767.2,3767.2,3766.93,3766.93,3761.82,3761.82,3761.82,3758.55,3758.55,3758.55,3758.55,3758.55,3758.55,3758.55,3758.55,3758.55,3758.55,3758.55,3758.55,3758.55,3758.55,3758.55,3734.34,3734.34,3734.34,3734.34,3734.34,3734.34,3734.34,3734.34,3734.34,3734.34,3734.34,3734.34,3734.34,3734.34,3734.34,3734.34,3734.34,3734.34,3734.34,3734.34,3734.34,3734.34,3734.34,3734.34,3734.34,3734.34,3734.34,3734.34,3734.34,3734.34,3734.34,3734.34,3734.34,3734.34,3734.34,3734.34,3734.34,3734.34,3733.88,3733.88,3733.88,3733.88,3733.88,3733.88,3733.88,3733.88,3733.88,3733.88,3733.88,3733.88,3733.88,3733.88,3733.88,3733.88,3733.88,3733.88,3733.88,3733.88,3733.88,3733.88,3733.88,3733.88,3733.88,3733.88,3733.88,3733.88,3733.88,3733.88,3733.88,3733.88,3733.88,3733.88,3733.88,3733.88,3733.88,3733.88,3733.88,3733.88,3733.88,3733.88,3733.88,3733.88,3733.88,3733.88,3733.88,3733.88,3733.88,3733.88,3733.88,3733.88,3733.88,3733.88,3733.88,3733.88,3733.88,3733.88,3733.88,3733.88,3733.88,3733.88,3733.88,3733.88,3733.88,3733.88,3733.88,3733.88,3733.88,3733.88,3733.88,3733.88,3733.88,3733.88,3733.88,3733.88,3733.88,3733.88,3733.88,3733.88,3733.88,3733.88,3733.88,3733.88,3733.88,3733.88,3733.88,3733.88,3733.88,3733.88,3733.88,3733.88,3733.88,3733.88,3733.88,3733.88,3733.88,3733.88,3733.88,3733.88,3733.88,3733.88,3733.88,3733.88,3733.88,3733.88,3733.88,3733.88,3733.88,3733.88,3733.88,3733.88,3733.88,3733.88,3733.88,3733.88,3733.88,3733.88,3733.88,3733.88,3733.88,3733.88,3733.88,3733.88,3733.88,3733.88,3733.88,3733.88,3733.88,3733.88,3733.88,3733.88,3733.88,3733.88,3733.88,3733.88,3733.88,3733.88,3733.88,3733.88,3733.88,3733.88,3733.88,3733.88,3733.88,3733.88,3733.88,3733.88,3733.88,3733.88,3733.88,3733.88,3733.88,3733.88,3733.88,3733.88,3733.88,3733.88,3733.88,3733.24,3733.24,3733.24,3733.24,3733.24,3733.24,3733.24,3733.24,3733.24,3733.24,3733.24,3733.24,3733.24,3733.24,3733.24,3733.01,3733.01,3733.01,3733.01,3733.01,3733.01,3733.01,3733.01,3733.01,3733.01,3733.01,3733.01,3733.01,3733.01,3733.01,3733.01,3733.01,3733.01,3733.01,3733.01,3733.01,3733.01,3733.01,3733.01,3733.01,3733.01,3733.01,3733.01,3733.01,3733.01,3733.01,3733.01,3733.01,3732.48,3732.48,3732.48,3732.48,3732.48,3732.48,3732.48,3732.48,3732.48,3732.48,3732.48,3732.48,3732.48,3732.48,3732.48,3732.48,3732.48,3732.48,3732.48,3732.48,3732.48,3732.48,3732.48,3732.48,3732.48,3732.48,3732.48,3732.48,3732.48,3732.48,3732.48,3732.48,3732.48,3732.48,3732.48,3732.48,3732.48,3732.48,3732.48,3732.48,3732.48,3732.48,3732.48,3732.48,3732.48,3732.48,3732.48,3732.48,3732.48,3732.48,3732.48,3732.48,3732.48,3732.48,3732.48,3732.48,3732.48,3732.48,3732.48,3732.48,3732.48,3732.48,3732.48,3732.48,3732.48,3732.48,3732.48,3732.48,3732.48,3732.48,3732.48,3732.48,3732.48,3732.48,3732.48,3732.48,3732.48,3732.48,3732.48,3732.48,3732.48,3732.48,3732.48,3732.48,3732.48,3732.48,3732.48,3732.48,3732.48,3732.48,3732.48,3732.48,3732.48,3732.48,3732.48,3732.48,3732.48,3732.48,3732.48,3732.48,3732.48,3732.48,3732.48,3732.48,3732.48,3732.48,3732.48,3732.48,3732.48,3732.48,3732.48,3732.48,3732.48,3732.48,3732.48,3732.48,3732.48,3732.48,3732.48,3732.48,3732.48,3732.48,3732.48,3732.48,3732.48,3732.48,3732.48,3732.48,3732.48,3732.48,3732.48,3732.48,3732.48,3732.48,3732.48,3732.48,3732.48,3732.48,3732.48,3732.48,3732.48,3732.48,3732.48,3732.48,3732.48,3732.48,3732.48,3732.48,3732.48,3732.48,3732.48,3732.48,3732.48,3732.48,3732.48,3732.48,3732.48,3732.48,3732.48,3732.48,3732.48,3732.48,3732.48,3732.48,3732.48,3732.48,3732.48,3732.48,3732.48,3732.48,3732.48,3732.48,3732.48,3732.48,3732.48,3732.48,3732.48,3732.48,3732.48,3732.48,3732.48,3732.48,3732.48,3732.48,3732.48,3732.48,3732.48,3732.48,3732.48,3732.48,3732.48,3732.48,3732.48,3732.48,3732.48,3732.48,3732.48,3732.48,3732.48,3732.48,3732.48,3732.48,3732.48,3732.48,3732.48,3732.48,3732.48,3732.48,3732.48,3732.48,3732.48,3732.48,3732.48,3732.48,3732.48,3732.48,3732.48,3732.48,3732.48,3732.48,3732.48,3732.48,3732.48,3732.48,3732.48,3732.48,3732.48,3732.48,3732.48,3732.48,3732.48,3732.48,3732.48,3732.48,3732.48,3732.48,3732.48,3732.48,3732.48,3732.48,3732.48,3732.48,3732.48,3732.48,3732.48,3732.48,3732.48,3732.48,3732.48,3732.48,3732.48,3732.48,3732.48,3732.48,3732.48,3732.48,3732.48,3732.48,3732.48,3732.48,3732.48,3732.48,3732.48,3732.48,3732.48,3732.48,3732.48,3732.48,3732.48,3732.48,3732.48,3732.48,3732.48,3732.48,3732.48,3732.48,3732.48,3732.48,3732.48,3732.48,3732.48,3732.48,3732.48,3732.48,3732.48,3732.48,3732.48,3732.48,3732.48,3732.48,3732.48,3732.48,3732.48,3732.48,3732.48,3732.48,3732.48,3732.48,3732.48,3732.48,3732.48,3732.48,3732.48,3732.48,3732.48,3732.48,3732.48,3732.48,3732.48,3732.48,3732.48,3732.48,3732.48,3732.48,3732.48,3732.48,3732.48,3732.48,3732.48,3732.48,3732.48,3732.48,3732.48,3732.48,3732.48,3732.48,3732.48,3732.48,3732.48,3732.48,3732.48,3732.48,3732.48,3732.48,3732.48,3732.48,3732.48,3732.48,3732.48,3732.48,3732.48,3732.48,3732.48,3732.48,3732.48,3732.48,3732.48,3732.48,3732.48,3732.48,3732.48,3732.48,3732.48,3732.48,3732.48,3732.48,3732.48,3732.48,3732.48,3732.48,3732.48,3732.48,3732.48,3732.48,3732.48,3732.48,3732.48,3732.48,3732.48,3732.48,3732.48,3732.48,3732.48,3732.48,3732.48,3732.48,3732.48,3732.48,3732.48,3732.48,3732.48,3732.48,3732.48,3732.48,3732.48,3732.48,3732.48,3732.48,3732.48,3732.48,3732.48,3732.48,3732.48,3732.48,3732.48,3732.48,3732.48,3732.48,3732.48,3732.48,3732.48,3732.48,3732.48,3732.48,3732.48,3732.48,3732.48,3732.48,3732.48,3732.48,3732.48,3732.48,3732.48,3732.48,3732.48,3732.48,3732.48,3732.48,3732.48,3732.48,3732.48,3732.48,3732.48,3732.48,3732.48,3732.48,3732.48,3732.48,3732.48,3732.48,3732.48,3732.48,3732.48,3732.48,3732.48,3732.48,3732.48,3732.48,3732.48,3732.48,3732.48,3732.48,3732.48,3732.48,3732.48,3732.48,3732.48,3732.48,3732.48,3732.48,3732.48,3732.48,3732.48,3732.48,3732.48,3732.48,3732.48,3732.48,3732.48,3732.48,3732.48,3732.48,3732.48,3732.48,3732.48,3732.48,3732.48,3732.48,3732.48,3732.48,3732.48,3732.48,3732.48,3732.48,3732.48,3732.48,3732.48,3732.48,3732.48,3732.48,3732.48,3732.48,3732.48,3732.48,3732.48,3732.48,3732.48,3732.48,3732.48,3732.48,3732.48,3732.48,3732.48,3732.48,3732.48,3732.48,3732.48,3732.48,3732.48,3732.48,3732.48,3732.48,3732.48,3732.48,3732.48,3732.48,3732.48,3732.48,3732.48,3732.48,3732.48,3732.48,3732.48,3732.48,3732.48,3732.48,3732.48,3732.48,3732.48,3732.48,3732.48,3732.48,3732.48,3732.48,3732.48,3732.48,3732.48,3732.48,3732.48,3732.48,3732.48,3732.48,3732.48,3732.48,3732.48,3732.48,3732.48,3732.48,3732.48,3732.48,3732.48,3732.48,3732.48,3732.48,3732.48,3732.48,3732.48,3732.48,3732.48,3732.48,3732.48,3732.48,3732.48,3732.48,3732.48,3732.48,3732.48,3732.48,3732.48,3732.48,3732.48,3732.48,3732.48,3732.48,3732.48,3732.48,3732.48,3732.48,3732.48,3732.48,3732.48,3732.48,3732.48,3732.48,3732.48,3732.48,3732.48,3732.48,3732.48,3732.48,3732.48,3732.48,3732.48,3732.48,3732.48,3732.48,3732.48,3732.48,3732.48,3732.48,3732.48,3732.48,3732.48,3732.48,3732.48,3732.48,3732.48,3732.48,3732.48,3732.48,3732.48,3732.48,3732.48,3732.48,3732.48,3732.48,3732.48,3732.48,3732.48,3732.48,3732.48,3732.48,3732.48,3732.48,3732.48,3732.48,3732.48,3732.48,3732.48,3732.48,3732.48,3732.48,3732.48,3732.48,3732.48,3732.48,3732.48,3732.48,3732.48,3732.48,3732.48,3732.48,3732.48,3732.48,3732.48,3732.48,3732.48,3732.48,3732.48,3732.48,3732.48,3732.48,3732.48,3732.48,3732.48,3732.48,3732.48,3732.48,3732.48,3732.48,3732.48,3732.48,3732.48,3732.48,3732.48,3732.48,3732.48,3732.48,3732.48,3732.48,3732.48,3732.48,3732.48,3732.48,3732.48,3732.48,3732.48,3732.48,3732.48,3732.48,3732.48,3732.48,3732.48,3732.48,3732.48,3732.48,3732.48,3732.48,3732.48,3732.48,3732.48,3732.48,3732.48,3732.48,3732.48,3732.48,3732.48,3732.48,3732.48,3732.48,3732.48,3732.48,3732.48,3732.48,3732.48,3732.48,3732.48,3732.48,3732.48,3732.48,3732.48,3732.48,3732.48,3732.48,3732.48,3732.48,3732.48,3732.48,3732.48,3732.48,3732.48,3732.48,3732.48,3732.48,3732.48,3732.48,3732.48,3732.48,3732.48,3732.48,3732.48,3732.48,3732.48,3732.48,3732.48,3732.48,3732.48,3732.48,3732.48,3732.48,3732.48,3732.48,3732.48,3732.48,3732.48,3732.48,3732.48,3732.48,3732.48,3732.48,3732.48,3732.48,3732.48,3732.48,3732.48,3732.48,3732.48,3732.48,3732.48,3732.48,3732.48,3732.48,3732.48,3732.48,3732.48,3732.48,3732.48,3732.48,3732.48,3732.48,3732.48,3732.48,3732.48,3732.48,3732.48,3732.48,3732.48,3732.48,3732.48,3732.48,3732.48,3732.48,3732.48,3732.48,3732.48,3732.48,3732.48,3732.48,3732.48,3732.48,3732.48,3732.48,3732.48,3732.48,3732.48,3732.48,3732.48,3732.48,3732.48,3732.48,3732.48,3732.48,3732.48,3732.48,3732.48,3732.48,3732.48,3732.48,3732.48,3732.48,3732.48,3732.48,3732.48,3732.48,3732.48,3732.48,3732.48,3732.48,3732.48,3732.48,3732.48,3732.48,3732.48,3732.48,3732.48,3732.48,3732.48,3732.48,3732.48,3732.48,3732.48,3732.48,3732.48,3732.48,3732.48,3732.48,3732.48,3732.48,3732.48,3732.48,3732.48,3732.48,3732.48,3732.48,3732.48,3732.48,3732.48,3732.48,3732.48,3732.48,3732.48,3732.48,3732.48,3732.48,3732.48,3732.48,3732.48,3732.48,3732.48,3732.48,3732.48,3732.48,3732.48,3732.48,3732.48,3732.48,3732.48,3732.48,3732.48,3732.48,3732.48,3732.48,3732.48,3732.48,3732.48,3732.48,3732.48,3732.48,3732.48,3732.48,3732.48,3732.48,3732.48,3732.48,3732.48,3732.48,3732.48,3732.48,3732.48,3732.48,3732.48,3732.48,3732.48,3732.48,3732.48,3732.48,3732.48,3732.48,3732.48,3732.48,3732.48,3732.48,3732.48,3732.48,3732.48,3732.48,3732.48,3732.48,3732.48,3732.48,3732.48,3732.48,3732.48,3732.48,3732.48,3732.48,3732.48,3732.48,3732.48,3732.48,3732.48,3732.48,3732.48,3732.48,3732.48,3732.48,3732.48,3732.48,3732.48,3732.48,3732.48,3732.48,3732.48,3732.48,3732.48,3732.48,3732.48,3732.48,3732.48,3732.48,3732.48,3732.48,3732.48,3732.48,3732.48,3732.48,3732.48,3732.48,3732.48,3732.48,3732.48,3732.48,3732.48,3732.48,3732.48,3732.48,3732.48,3732.48,3732.48,3732.48,3732.48,3732.48,3732.48,3732.48,3732.48,3732.48,3732.48,3732.48,3732.48,3732.48,3732.48,3732.48,3732.48,3732.48,3732.48,3732.48,3732.48,3732.48,3732.48,3732.48,3732.48,3732.48,3732.48,3732.48,3732.48,3732.48,3732.48,3732.48,3732.48,3732.48,3732.48,3732.48,3732.48,3732.48,3732.48,3732.48,3732.48,3732.48,3732.48,3732.48,3732.48,3732.48,3732.48,3732.48,3732.48,3732.48,3732.48,3732.48,3732.48,3732.48,3732.48,3732.48,3732.48,3732.48,3732.48,3732.48,3732.48,3732.48,3732.48,3732.48,3732.48,3732.48,3732.48,3732.48,3732.48,3732.48,3732.48,3732.48,3732.48,3732.48,3732.48,3732.48,3732.48,3732.48,3732.48,3732.48,3732.48,3732.48,3732.48,3732.48,3732.48,3732.48,3732.48,3732.48,3732.48,3732.48,3732.48,3732.48,3732.48,3732.48,3732.48,3732.48,3732.48,3732.48,3732.48,3732.48,3732.48,3732.48,3732.48,3732.48,3732.48,3732.48,3732.48,3732.48,3732.48,3732.48,3732.48,3732.48,3732.48,3732.48,3732.48,3732.48,3732.48,3732.48,3732.48,3732.48,3732.48,3732.48,3732.48,3732.48,3732.48,3732.48,3732.48,3732.48,3732.48,3732.48,3732.48,3732.48,3732.48,3732.48,3732.48,3732.48,3732.48,3732.48,3732.48,3732.48,3732.48,3732.48,3732.48,3732.48,3732.48,3732.48,3732.48,3732.48,3732.48,3732.48,3732.48,3732.48,3732.48,3732.48,3732.48,3732.48,3732.48,3732.48,3732.48,3732.48,3732.48,3732.48,3732.48,3732.48,3732.48,3732.48,3732.48,3732.48,3732.48,3732.48,3732.48,3732.48,3732.48,3732.48,3732.48,3732.48,3732.48,3732.48,3732.48,3732.48,3732.48,3732.48,3732.48,3732.48,3732.48,3732.48,3732.48,3732.48,3732.48,3732.48,3732.48,3732.48,3732.48,3732.48,3732.48,3732.48,3732.48,3732.48,3732.48,3732.48,3732.48,3732.48,3732.48,3732.48,3732.48,3732.48,3732.48,3732.48,3732.48,3732.48,3732.48,3732.48,3732.48,3732.48,3732.48,3732.48,3732.48,3732.48,3732.48,3732.48,3732.48,3732.48,3732.48,3732.48,3732.48,3732.48,3732.48,3732.48,3732.48,3732.48,3732.48,3732.48,3732.48,3732.48,3732.48,3732.48,3732.48,3732.48,3732.48,3732.48,3732.48,3732.48,3732.48,3732.48,3732.48,3732.48,3732.48,3732.48,3732.48,3732.48,3732.48,3732.48,3732.48,3732.48,3732.48,3732.48,3732.48,3732.48,3732.48,3732.48,3732.48,3732.48,3732.48,3732.48,3732.48,3732.48,3732.48,3732.48,3732.48,3732.48,3732.48,3732.48,3732.48,3732.48,3732.48,3732.48,3732.48,3732.48,3732.48,3732.48,3732.48,3732.48,3732.48,3732.48,3732.48,3732.48,3732.48,3732.48,3732.48,3732.48,3732.48,3732.48,3732.48,3732.48,3732.48,3732.48,3732.48,3732.48,3732.48,3732.48,3732.48,3732.48,3732.48,3732.48,3732.48,3732.48,3732.48,3732.48,3732.48,3732.48,3732.48,3732.48,3732.48,3732.48,3732.48,3732.48,3732.48,3732.48,3732.48,3732.48,3732.48,3732.48,3732.48,3732.48,3732.48,3732.48,3732.48,3732.48,3732.48,3732.48,3732.48,3732.48,3732.48,3732.48,3732.48,3732.48,3732.48,3732.48,3732.48,3732.48,3732.48,3732.48,3732.48,3732.48,3732.48,3732.48,3732.48,3732.48,3732.48,3732.48,3732.48,3732.48,3732.48,3732.48,3732.48,3732.48,3732.48,3732.48,3732.48,3732.48,3732.48,3732.48,3732.48,3732.48,3732.48,3732.48,3732.48,3732.48,3732.48,3732.48,3732.48,3732.48,3732.48,3732.48,3732.48,3732.48,3732.48,3732.48,3732.48,3732.48,3732.48,3732.48,3732.48,3732.48,3732.48,3732.48,3732.48,3732.48,3732.48,3732.48,3732.48,3732.48,3732.48,3732.48,3732.48,3732.48,3732.48,3732.48,3732.48,3732.48,3732.48,3732.48,3732.48,3732.48,3732.48,3732.48,3732.48,3732.48,3732.48,3732.48,3732.48,3732.48,3732.48,3732.48,3732.48,3732.48,3732.48,3732.48,3732.48,3732.48,3732.48,3732.48,3732.48,3732.48,3732.48,3732.48,3732.48,3732.48,3732.48,3732.48,3732.48,3732.48,3732.48,3732.48,3732.48,3732.48,3732.48,3732.48,3732.48,3732.48,3732.48,3732.48,3732.48,3732.48,3732.48,3732.48,3732.48,3732.48,3732.48,3732.48,3732.48,3732.48,3732.48,3732.48,3732.48,3732.48,3732.48,3732.48,3732.48,3732.48,3732.48,3732.48,3732.48,3732.48,3732.48,3732.48,3732.48,3732.48,3732.48,3732.48,3732.48,3732.48,3732.48,3732.48,3732.48,3732.48,3732.48,3732.48,3732.48,3732.48,3732.48,3732.48,3732.48,3732.48,3732.48,3732.48,3732.48,3732.48,3732.48,3732.48,3732.48,3732.48,3732.48,3732.48,3732.48,3732.48,3732.48,3732.48,3732.48,3732.48,3732.48,3732.48,3732.48,3732.48,3732.48,3732.48,3732.48,3732.48,3732.48,3732.48,3732.48,3732.48,3732.48,3732.48,3732.48,3732.48,3732.48,3732.48,3732.48,3732.48,3732.48,3732.48,3732.48,3732.48,3732.48,3732.48,3732.48,3732.48,3732.48,3732.48,3732.48,3732.48,3732.48,3732.48,3732.48,3732.48,3732.48,3732.48,3732.48,3732.48,3732.48,3732.48,3732.48,3732.48,3732.48,3732.48,3732.48,3732.48,3732.48,3732.48,3732.48,3732.48,3732.48,3732.48,3732.48,3732.48,3732.48,3732.48,3732.48,3732.48,3732.48,3732.48,3732.48,3732.48,3732.48,3732.48,3732.48,3732.48,3732.48,3732.48,3732.48,3732.48,3732.48,3732.48,3732.48,3732.48,3732.48,3732.48,3732.48,3732.48,3732.48,3732.48,3732.48,3732.48,3732.48,3732.48,3732.48,3732.48,3732.48,3732.48,3732.48,3732.48,3732.48,3732.48,3732.48,3732.48,3732.48,3732.48,3732.48,3732.48,3732.48,3732.48,3732.48,3732.48,3732.48,3732.48,3732.48,3732.48,3732.48,3732.48,3732.48,3732.48,3732.48,3732.48,3732.48,3732.48,3732.48,3732.48,3732.48,3732.48,3732.48,3732.48,3732.48,3732.48,3732.48,3732.48,3732.48,3732.48,3732.48,3732.48,3732.48,3732.48,3732.48,3732.48,3732.48,3732.48,3732.48,3732.48,3732.48,3732.48,3732.48,3732.48,3732.48,3732.48,3732.48,3732.48,3732.48,3732.48,3732.48,3732.48,3732.48,3732.48,3732.48,3732.48,3732.48,3732.48,3732.48,3732.48,3732.48,3732.48,3732.48,3732.48,3732.48,3732.48,3732.48,3732.48,3732.48,3732.48,3732.48,3732.48,3732.48,3732.48,3732.48,3732.48,3732.48,3732.48,3732.48,3732.48,3732.48,3732.48,3732.48,3732.48,3732.48,3732.48,3732.48,3732.48,3732.48,3732.48,3732.48,3732.48,3732.48,3732.48,3732.48,3732.48,3732.48,3732.48,3732.48,3732.48,3732.48,3732.48,3732.48,3732.48,3732.48,3732.48,3732.48,3732.48,3732.48,3732.48,3732.48,3732.48,3732.48,3732.48,3732.48,3732.48,3732.48,3732.48,3732.48,3732.48,3732.48,3732.48,3732.48,3732.48,3732.48,3732.48,3732.48,3732.48,3732.48,3732.48,3732.48,3732.48,3732.48,3732.48,3732.48,3732.48,3732.48,3732.48,3732.48,3732.48,3732.48,3732.48,3732.48,3732.48,3732.48,3732.48,3732.48,3732.48,3732.48,3732.48,3732.48,3732.48,3732.48,3732.48,3732.48,3732.48,3732.48,3732.48,3732.48,3732.48,3732.48,3732.48,3732.48,3732.48,3732.48,3732.48,3732.48,3732.48,3732.48,3732.48,3732.48,3732.48,3732.48,3732.48,3732.48,3732.48,3732.48,3732.48,3732.48,3732.48,3732.48,3732.48,3732.48,3732.48,3732.48,3732.48,3732.48,3732.48,3732.48,3732.48,3732.48,3732.48,3732.48,3732.48,3732.48,3732.48,3732.48,3732.48,3732.48,3732.48,3732.48,3732.48,3732.48,3732.48,3732.48,3732.48,3732.48,3732.48,3732.48,3732.48,3732.48,3732.48,3732.48,3732.48,3732.48,3732.48,3732.48,3732.48,3732.48,3732.48,3732.48,3732.48,3732.48,3732.48,3732.48,3732.48,3732.48,3732.48,3732.48,3732.48,3732.48,3732.48,3732.48,3732.48,3732.48,3732.48,3732.48,3732.48,3732.48,3732.48,3732.48,3732.48,3732.48,3732.48,3732.48,3732.48,3732.48,3732.48,3732.48,3732.48,3732.48,3732.48,3732.48,3732.48,3732.48,3732.48,3732.48,3732.48,3732.48,3732.48,3732.48,3732.48,3732.48,3732.48,3732.48,3732.48,3732.48,3732.48,3732.48,3732.48,3732.48,3732.48,3732.48,3732.48,3732.48,3732.48,3732.48,3732.48,3732.48,3732.48,3732.48,3732.48,3732.48,3732.48,3732.48,3732.48,3732.48,3732.48,3732.48,3732.48,3732.48,3732.48,3732.48,3732.48,3732.48,3732.48,3732.48,3732.48,3732.48,3732.48,3732.48,3732.48,3732.48,3732.48,3732.48,3732.48,3732.48,3732.48,3732.48,3732.48,3732.48,3732.48,3732.48,3732.48,3732.48,3732.48,3732.48,3732.48,3732.48,3732.48,3732.48,3732.48,3732.48,3732.48,3732.48,3732.48,3732.48,3732.48,3732.48,3732.48,3732.48,3732.48,3732.48,3732.48,3732.48,3732.48,3732.48,3732.48,3732.48,3732.48,3732.48,3732.48,3732.48,3732.48,3732.48,3732.48,3732.48,3732.48,3732.48,3732.48,3732.48,3732.48,3732.48,3732.48,3732.48,3732.48,3732.48,3732.48,3732.48,3732.48,3732.48,3732.48,3732.48,3732.48,3732.48,3732.48,3732.48,3732.48,3732.48,3732.48,3732.48,3732.48,3732.48,3732.48,3732.48,3732.48,3732.48,3732.48,3732.48,3732.48,3732.48,3732.48,3732.48,3732.48,3732.48,3732.48,3732.48,3732.48,3732.48,3732.48,3732.48,3732.48,3732.48,3732.48,3732.48,3732.48,3732.48,3732.48,3732.48,3732.48,3732.48,3732.48,3732.48,3732.48,3732.48,3732.48,3732.48,3732.48,3732.48,3732.48,3732.48,3732.48,3732.48,3732.48,3732.48,3732.48,3732.48,3732.48,3732.48,3732.48,3732.48,3732.48,3732.48,3732.48,3732.48,3732.48,3732.48,3732.48,3732.48,3732.48,3732.48,3732.48,3732.48,3732.48,3732.48,3732.48,3732.48,3732.48,3732.48,3732.48,3732.48,3732.48,3732.48,3732.48,3732.48,3732.48,3732.48,3732.48,3732.48,3732.48,3732.48,3732.48,3732.48,3732.48,3732.48,3732.48,3732.48,3732.48,3732.48,3732.48,3732.48,3732.48,3732.48,3732.48,3732.48,3732.48,3732.48,3732.48,3732.48,3732.48,3732.48,3732.48,3732.48,3732.48,3732.48,3732.48,3732.48,3732.48,3732.48,3732.48,3732.48,3732.48,3732.48,3732.48,3732.48,3732.48,3732.48,3732.48,3732.48,3732.48,3732.48,3732.48,3732.48,3732.48,3732.48,3732.48,3732.48,3732.48,3732.48,3732.48,3732.48,3732.48,3732.48,3732.48,3732.48,3732.48,3732.48,3732.48,3732.48,3732.48,3732.48,3732.48,3732.48,3732.48,3732.48,3732.48,3732.48,3732.48,3732.48,3732.48,3732.48,3732.48,3732.48,3732.48,3732.48,3732.48,3732.48,3732.48,3732.48,3732.48,3732.48,3732.48,3732.48,3732.48,3732.48,3732.48,3732.48,3732.48,3732.48,3732.48,3732.48,3732.48,3732.48,3732.48,3732.48,3732.48,3732.48,3732.48,3732.48,3732.48,3732.48,3732.48,3732.48,3732.48,3732.48,3732.48,3732.48,3732.48,3732.48,3732.48,3732.48,3732.48,3732.48,3732.48,3732.48,3732.48,3732.48,3732.48,3732.48,3732.48,3732.48,3732.48,3732.48,3732.48,3732.48,3732.48,3732.48,3732.48,3732.48,3732.48,3732.48,3732.48,3732.48,3732.48,3732.48,3732.48,3732.48,3732.48,3732.48,3732.48,3732.48,3732.48,3732.48,3732.48,3732.48,3732.48,3732.48,3732.48,3732.48,3732.48,3732.48,3732.48,3732.48,3732.48,3732.48,3732.48,3732.48,3732.48,3732.48,3732.48,3732.48,3732.48,3732.48,3732.48,3732.48,3732.48,3732.48,3732.48,3732.48,3732.48,3732.48,3732.48,3732.48,3732.48,3732.48,3732.48,3732.48,3732.48,3732.48,3732.48,3732.48,3732.48,3732.48,3732.48,3732.48,3732.48,3732.48,3732.48,3732.48,3732.48,3732.48,3732.48,3732.48,3732.48,3732.48,3732.48,3732.48,3732.48,3732.48,3732.48,3732.48,3732.48,3732.48,3732.48,3732.48,3732.48,3732.48,3732.48,3732.48,3732.48,3732.48,3732.48,3732.48,3732.48,3732.48,3732.48,3732.48,3732.48,3732.48,3732.48,3732.48,3732.48,3732.48,3732.48,3732.48,3732.48,3732.48,3732.48,3732.48,3732.48,3732.48,3732.48,3732.48,3732.48,3732.48,3732.48,3732.48,3732.48,3732.48,3732.48,3732.48,3732.48,3732.48,3732.48,3732.48,3732.48,3732.48,3732.48,3732.48,3732.48,3732.48,3732.48,3732.48,3732.48,3732.48,3732.48,3732.48,3732.48,3732.48,3732.48,3732.48,3732.48,3732.48,3732.48,3732.48,3732.48,3732.48,3732.48,3732.48,3732.48,3732.48,3732.48,3732.48,3732.48,3732.48,3732.48,3732.48,3732.48,3732.48,3732.48,3732.48,3732.48,3732.48,3732.48,3732.48,3732.48,3732.48,3732.48,3732.48,3732.48,3732.48,3732.48,3732.48,3732.48,3732.48,3732.48,3732.48,3732.48,3732.48,3732.48,3732.48,3732.48,3732.48,3732.48,3732.48,3732.48,3732.48,3732.48,3732.48,3732.48,3732.48,3732.48,3732.48,3732.48,3732.48,3732.48,3732.48,3732.48,3732.48,3732.48,3732.48,3732.48,3732.48,3732.48,3732.48,3732.48,3732.48,3732.48,3732.48,3732.48,3732.48,3732.48,3732.48,3732.48,3732.48,3732.48,3732.48,3732.48,3732.48,3732.48,3732.48,3732.48,3732.48,3732.48,3732.48,3732.48,3732.48,3732.48,3732.48,3732.48,3732.48,3732.48,3732.48,3732.48,3732.48,3732.48,3732.48,3732.48,3732.48,3732.48,3732.48,3732.48,3732.48,3732.48,3732.48,3732.48,3732.48,3732.48,3732.48,3732.48,3732.48,3732.48,3732.48,3732.48,3732.48,3732.48,3732.48,3732.48,3732.48,3732.48,3732.48,3732.48,3732.48,3732.48,3732.48,3732.48,3732.48,3732.48,3732.48,3732.48,3732.48,3732.48,3732.48,3732.48,3732.48,3732.48,3732.48,3732.48,3732.48,3732.48,3732.48,3732.48,3732.48,3732.48,3732.48,3732.48,3732.48,3732.48,3732.48,3732.48,3732.48,3732.48,3732.48,3732.48,3732.48,3732.48,3732.48,3732.48,3732.48,3732.48,3732.48,3732.48,3732.48,3732.48,3732.48,3732.48,3732.48,3732.48,3732.48,3732.48,3732.48,3732.48,3732.48,3732.48,3732.48,3732.48,3732.48,3732.48,3732.48,3732.48,3732.48,3732.48,3732.48,3732.48,3732.48,3732.48,3732.48,3732.48,3732.48,3732.48,3732.48,3732.48,3732.48,3732.48,3732.48,3732.48,3732.48,3732.48,3732.48,3732.48,3732.48,3732.48,3732.48,3732.48,3732.48,3732.48,3732.48,3732.48,3732.48,3732.48,3732.48,3732.48,3732.48,3732.48,3732.48,3732.48,3732.48,3732.48,3732.48,3732.48,3732.48,3732.48,3732.48,3732.48,3732.48,3732.48,3732.48,3732.48,3732.48,3732.48,3732.48,3732.48,3732.48,3732.48,3732.48,3732.48,3732.48,3732.48,3732.48,3732.48,3732.48,3732.48,3732.48,3732.48,3732.48,3732.48,3732.48,3732.48,3732.48,3732.48,3732.48,3732.48,3732.48,3732.48,3732.48,3732.48,3732.48,3732.48,3732.48,3732.48,3732.48,3732.48,3732.48,3732.48,3732.48,3732.48,3732.48,3732.48,3732.48,3732.48,3732.48,3732.48,3732.48,3732.48,3732.48,3732.48,3732.48,3732.48,3732.48,3732.48,3732.48,3732.48,3732.48,3732.48,3732.48,3732.48,3732.48,3732.48,3732.48,3732.48,3732.48,3732.48,3732.48,3732.48,3732.48,3732.48,3732.48,3732.48,3732.48,3732.48,3732.48,3732.48,3732.48,3732.48,3732.48,3732.48,3732.48,3732.48,3732.48,3732.48,3732.48,3732.48,3732.48,3732.48,3732.48,3732.48,3732.48,3732.48,3732.48,3732.48,3732.48,3732.48,3732.48,3732.48,3732.48,3732.48,3732.48,3732.48,3732.48,3732.48,3732.48,3732.48,3732.48,3732.48,3732.48,3732.48,3732.48,3732.48,3732.48,3732.48,3732.48,3732.48,3732.48,3732.48,3732.48,3732.48,3732.48,3732.48,3732.48,3732.48,3732.48,3732.48,3732.48,3732.48,3732.48,3732.48,3732.48,3732.48,3732.48,3732.48,3732.48,3732.48,3732.48,3732.48,3732.48,3732.48,3732.48,3732.48,3732.48,3732.48,3732.48,3732.48,3732.48,3732.48,3732.48,3732.48,3732.48,3732.48,3732.48,3732.48,3732.48,3732.48,3732.48,3732.48,3732.48,3732.48,3732.48,3732.48,3732.48,3732.48,3732.48,3732.48,3732.48,3732.48,3732.48,3732.48,3732.48,3732.48,3732.48,3732.48,3732.48,3732.48,3732.48,3732.48,3732.48,3732.48,3732.48,3732.48,3732.48,3732.48,3732.48,3732.48,3732.48,3732.48,3732.48,3732.48,3732.48,3732.48,3732.48,3732.48,3732.48,3732.48,3732.48,3732.48,3732.48,3732.48,3732.48,3732.48,3732.48,3732.48,3732.48,3732.48,3732.48,3732.48,3732.48,3732.48,3732.48,3732.48,3732.48,3732.48,3732.48,3732.48,3732.48,3732.48,3732.48,3732.48,3732.48,3732.48,3732.48,3732.48,3732.48,3732.48,3732.48,3732.48,3732.48,3732.48,3732.48,3732.48,3732.48,3732.48,3732.48,3732.48,3732.48,3732.48,3732.48,3732.48,3732.48,3732.48,3732.48,3732.48,3732.48,3732.48,3732.48,3732.48,3732.48,3732.48,3732.48,3732.48,3732.48,3732.48,3732.48,3732.48,3732.48,3732.48,3732.48,3732.48,3732.48,3732.48,3732.48,3732.48,3732.48,3732.48,3732.48,3732.48,3732.48,3732.48,3732.48,3732.48,3732.48,3732.48,3732.48,3732.48,3732.48,3732.48,3732.48,3732.48,3732.48,3732.48,3732.48,3732.48,3732.48,3732.48,3732.48,3732.48,3732.48,3732.48,3732.48,3732.48,3732.48,3732.48,3732.48,3732.48,3732.48,3732.48,3732.48,3732.48,3732.48,3732.48,3732.48,3732.48,3732.48,3732.48,3732.48,3732.48,3732.48,3732.48,3732.48,3732.48,3732.48,3732.48,3732.48,3732.48,3732.48,3732.48,3732.48,3732.48,3732.48,3732.48,3732.48,3732.48,3732.48,3732.48,3732.48,3732.48,3732.48,3732.48,3732.48,3732.48,3732.48,3732.48,3732.48,3732.48,3732.48,3732.48,3732.48,3732.48,3732.48,3732.48,3732.48,3732.48,3732.48,3732.48,3732.48,3732.48,3732.48,3732.48,3732.48,3732.48,3732.48,3732.48,3732.48,3732.48,3732.48,3732.48,3732.48,3732.48,3732.48,3732.48,3732.48,3732.48,3732.48,3732.48,3732.48,3732.48,3732.48,3732.48,3732.48,3732.48,3732.48,3732.48,3732.48,3732.48,3732.48,3732.48,3732.48,3732.48,3732.48,3732.48,3732.48,3732.48,3732.48,3732.48,3732.48,3732.48,3732.48,3732.48,3732.48,3732.48,3732.48,3732.48,3732.48,3732.48,3732.48,3732.48,3732.48,3732.48,3732.48,3732.48,3732.48,3732.48,3732.48,3732.48,3732.48,3732.48,3732.48,3732.48,3732.48,3732.48,3732.48,3732.48,3732.48,3732.48,3732.48,3732.48,3732.48,3732.48,3732.48,3732.48,3732.48,3732.48,3732.48,3732.48,3732.48,3732.48,3732.48,3732.48,3732.48,3732.48,3732.48,3732.48,3732.48,3732.48,3732.48,3732.48,3732.48,3732.48,3732.48,3732.48,3732.48,3732.48,3732.48,3732.48,3732.48,3732.48,3732.48,3732.48,3732.48,3732.48,3732.48,3732.48,3732.48,3732.48,3732.48,3732.48,3732.48,3732.48,3732.48,3732.48,3732.48,3732.48,3732.48,3732.48,3732.48,3732.48,3732.48,3732.48,3732.48,3732.48,3732.48,3732.48,3732.48,3732.48,3732.48,3732.48,3732.48,3732.48,3732.48,3732.48,3732.48,3732.48,3732.48,3732.48,3732.48,3732.48,3732.48,3732.48,3732.48,3732.48,3732.48,3732.48,3732.48,3732.48,3732.48,3732.48,3732.48,3732.48,3732.48,3732.48,3732.48,3732.48,3732.48,3732.48,3732.48,3732.48,3732.48,3732.48,3732.48,3732.48,3732.48,3732.48,3732.48,3732.48,3732.48,3732.48,3732.48,3732.48,3732.48,3732.48,3732.48,3732.48,3732.48,3732.48,3732.48,3732.48,3732.48,3732.48,3732.48,3732.48,3732.48,3732.48,3732.48,3732.48,3732.48,3732.48,3732.48,3732.48,3732.48,3732.48,3732.48,3732.48,3732.48,3732.48,3732.48,3732.48,3732.48,3732.48,3732.48,3732.48,3732.48,3732.48,3732.48,3732.48,3732.48,3732.48,3732.48,3732.48,3732.48,3732.48,3732.48,3732.48,3732.48,3732.48,3732.48,3732.48,3732.48,3732.48,3732.48,3732.48,3732.48,3732.48,3732.48,3732.48,3732.48,3732.48,3732.48,3732.48,3732.48,3732.48,3732.48,3732.48,3732.48,3732.48,3732.48,3732.48,3732.48,3732.48,3732.48,3732.48,3732.48,3732.48,3732.48,3732.48,3732.48,3732.48,3732.48,3732.48,3732.48,3732.48,3732.48,3732.48,3732.48,3732.48,3732.48,3732.48,3732.48,3732.48,3732.48,3732.48,3732.48,3732.48,3732.48,3732.48,3732.48,3732.48,3732.48,3732.48,3732.48,3732.48,3732.48,3732.48,3732.48,3732.48,3732.48,3732.48,3732.48,3732.48,3732.48,3732.48,3732.48,3732.48,3732.48,3732.48,3732.48,3732.48,3732.48,3732.48,3732.48,3732.48,3732.48,3732.48,3732.48,3732.48,3732.48,3732.48,3732.48,3732.48,3732.48,3732.48,3732.48,3732.48,3732.48,3732.48,3732.48,3732.48,3732.48,3732.48,3732.48,3732.48,3732.48,3732.48,3732.48,3732.48,3732.48,3732.48,3732.48,3732.48,3732.48,3732.48,3732.48,3732.48,3732.48,3732.48,3732.48,3732.48,3732.48,3732.48,3732.48,3732.48,3732.48,3732.48,3732.48,3732.48,3732.48,3732.48,3732.48,3732.48,3732.48,3732.48,3732.48,3732.48,3732.48,3732.48,3732.48,3732.48,3732.48,3732.48,3732.48,3732.48,3732.48,3732.48,3732.48,3732.48,3732.48,3732.48,3732.48,3732.48,3732.48,3732.48,3732.48,3732.48,3732.48,3732.48,3732.48,3732.48,3732.48,3732.48,3732.48,3732.48,3732.48,3732.48,3732.48,3732.48,3732.48,3732.48,3732.48,3732.48,3732.48,3732.48,3732.48,3732.48,3732.48,3732.48,3732.48,3732.48,3732.48,3732.48,3732.48,3732.48,3732.48,3732.48,3732.48,3732.48,3732.48,3732.48,3732.48,3732.48,3732.48,3732.48,3732.48,3732.48,3732.48,3732.48,3732.48,3732.48,3732.48,3732.48,3732.48,3732.48,3732.48,3732.48,3732.48,3732.48,3732.48,3732.48,3732.48,3732.48,3732.48,3732.48,3732.48,3732.48,3732.48,3732.48,3732.48,3732.48,3732.48,3732.48,3732.48,3732.48,3732.48,3732.48,3732.48,3732.48,3732.48,3732.48,3732.48,3732.48,3732.48,3732.48,3732.48,3732.48,3732.48,3732.48,3732.48,3732.48,3732.48,3732.48,3732.48,3732.48,3732.48,3732.48,3732.48,3732.48,3732.48,3732.48,3732.48,3732.48,3732.48,3732.48,3732.48,3732.48,3732.48,3732.48,3732.48,3732.48,3732.48,3732.48,3732.48,3732.48,3732.48,3732.48,3732.48,3732.48,3732.48,3732.48,3732.48,3732.48,3732.48,3732.48,3732.48,3732.48,3732.48,3732.48,3732.48,3732.48,3732.48,3732.48,3732.48,3732.48,3732.48,3732.48,3732.48,3732.48,3732.48,3732.48,3732.48,3732.48,3732.48,3732.48,3732.48,3732.48,3732.48,3732.48,3732.48,3732.48,3732.48,3732.48,3732.48,3732.48,3732.48,3732.48,3732.48,3732.48,3732.48,3732.48,3732.48,3732.48,3732.48,3732.48,3732.48,3732.48,3732.48,3732.48,3732.48,3732.48,3732.48,3732.48,3732.48,3732.48,3732.48,3732.48,3732.48,3732.48,3732.48,3732.48,3732.48,3732.48,3732.48,3732.48,3732.48,3732.48,3732.48,3732.48,3732.48,3732.48,3732.48,3732.48,3732.48,3732.48,3732.48,3732.48,3732.48,3732.48,3732.48,3732.48,3732.48,3732.48,3732.48,3732.48,3732.48,3732.48,3732.48,3732.48,3732.48,3732.48,3732.48,3732.48,3732.48,3732.48,3732.48,3732.48,3732.48,3732.48,3732.48,3732.48,3732.48,3732.48,3732.48,3732.48,3732.48,3732.48,3732.48,3732.48,3732.48,3732.48,3732.48,3732.48,3732.48,3732.48,3732.48,3732.48,3732.48,3732.48,3732.48,3732.48,3732.48,3732.48,3732.48,3732.48,3732.48,3732.48,3732.48,3732.48,3732.48,3732.48,3732.48,3732.48,3732.48,3732.48,3732.48,3732.48,3732.48,3732.48,3732.48,3732.48,3732.48,3732.48,3732.48,3732.48,3732.48,3732.48,3732.48,3732.48,3732.48,3732.48,3732.48,3732.48,3732.48,3732.48,3732.48,3732.48,3732.48,3732.48,3732.48,3732.48,3732.48,3732.48,3732.48,3732.48,3732.48,3732.48,3732.48,3732.48,3732.48,3732.48,3732.48,3732.48,3732.48,3732.48,3732.48,3732.48,